Instance name: /mnt/c/Users/ORG/CLionProjects/uMV-FSTSP/Murray_Chu_2015_test_data/FSTSP/FSTSP_10_customer_problems/20140810T123440v4

drone speed: 0.2 miles/minute
uav non-eligible customer: 4 5 
Printing number of nodes: 11

Gurobi Optimizer version 11.0.0 build v11.0.0rc2 (linux64 - "Ubuntu 22.04.3 LTS")

CPU model: 13th Gen Intel(R) Core(TM) i5-13500, instruction set [SSE2|AVX|AVX2]
Thread count: 10 physical cores, 20 logical processors, using up to 20 threads

Optimize a model with 44651 rows, 1957 columns and 1837624 nonzeros
Model fingerprint: 0x1ee71cf5
Variable types: 11 continuous, 1946 integer (1814 binary)
Coefficient statistics:
  Matrix range     [1e+00, 4e+01]
  Objective range  [1e+00, 3e+01]
  Bounds range     [1e+00, 1e+00]
  RHS range        [1e+00, 9e+00]
Found heuristic solution: objective 175.4501055
Presolve removed 39544 rows and 1202 columns
Presolve time: 2.35s
Presolved: 5107 rows, 755 columns, 119088 nonzeros
Variable types: 8 continuous, 747 integer (747 binary)
Found heuristic solution: objective 152.7800034

Root relaxation: objective 6.343420e+01, 601 iterations, 0.06 seconds (0.12 work units)

    Nodes    |    Current Node    |     Objective Bounds      |     Work
 Expl Unexpl |  Obj  Depth IntInf | Incumbent    BestBd   Gap | It/Node Time

     0     0   63.43420    0  126  152.78000   63.43420  58.5%     -    2s
H    0     0                     107.0190442   63.43420  40.7%     -    2s
H    0     0                      83.7053616   63.43420  24.2%     -    2s
     0     0   64.34633    0  172   83.70536   64.34633  23.1%     -    2s
H    0     0                      74.0730508   64.34633  13.1%     -    2s
H    0     0                      72.3866518   64.60841  10.7%     -    2s
     0     0   64.60841    0  150   72.38665   64.60841  10.7%     -    2s
     0     0   64.83085    0  155   72.38665   64.83085  10.4%     -    2s
     0     0   64.93239    0  178   72.38665   64.93239  10.3%     -    2s
     0     0   65.28694    0  191   72.38665   65.28694  9.81%     -    3s
H    0     0                      71.1955462   65.31935  8.25%     -    3s
     0     0   65.31935    0  182   71.19555   65.31935  8.25%     -    3s
     0     0   65.33877    0  186   71.19555   65.33877  8.23%     -    3s
H    0     0                      70.8653514   65.33877  7.80%     -    3s
     0     0   65.59040    0  194   70.86535   65.59040  7.44%     -    3s
H    0     0                      70.7999249   65.66102  7.26%     -    3s
     0     0   65.66102    0  196   70.79992   65.66102  7.26%     -    3s
     0     0   65.71445    0  202   70.79992   65.71445  7.18%     -    3s
     0     0   65.77219    0  198   70.79992   65.77219  7.10%     -    3s
     0     0   65.77608    0  201   70.79992   65.77608  7.10%     -    3s
     0     0   65.82640    0  206   70.79992   65.82640  7.02%     -    3s
     0     0   65.83127    0  205   70.79992   65.83127  7.02%     -    3s
     0     0   65.94667    0  223   70.79992   65.94667  6.85%     -    3s
     0     0   65.97564    0  222   70.79992   65.97564  6.81%     -    3s
     0     2   65.97564    0  222   70.79992   65.97564  6.81%     -    3s
H   79    71                      70.4666518   65.97564  6.37%   151    4s
   130    91   67.36373    9   75   70.46665   65.97564  6.37%   122    5s
H  139    91                      69.9015726   65.97564  5.62%   118    5s

Cutting planes:
  Gomory: 1
  Cover: 1
  Clique: 1
  MIR: 5
  Zero half: 27
  RLT: 60

Explored 654 nodes (37466 simplex iterations) in 6.01 seconds (11.16 work units)
Thread count was 20 (of 20 available processors)

Solution count 10: 69.9016 70.4667 70.7999 ... 152.78

Optimal solution found (tolerance 1.00e-04)
Best objective 6.990157262301e+01, best bound 6.990157262301e+01, gap 0.0000%
Truck arcs: 
0 2 12.3922
1 6 3.41898
2 7 6.42059
3 4 6.71587
4 8 5.54215
5 10 11.4906
6 11 11.127
7 5 1.61466
8 1 2.95098
10 3 6.22861
Theta:
Theta_9 = 1
Drone arcs:
9 8
10 9
Gamma:
gamma_9_3_4= 1
gamma_9_4_8= 1
gamma_9_10_3= 1
Sigma:
Sigma_1 = 0
Sigma_2 = 0
Sigma_3 = 0
Sigma_4 = 0
Sigma_5 = 0
Sigma_6 = 0
Sigma_7 = -0
Sigma_8 = 0
Sigma_9 = 0
Sigma_10 = 0
Sigma_11 = 0
middle of 9 sortie are: 3 4 
Objective: 69.9016
Number of sorties: 1
